(declare-fun var0 () String)
(assert (str.in.re var0 (re.++ (re.* (re.+ (str.to.re "MM"))) (re.++ (re.* (re.union (str.to.re "KKK") (str.to.re "L"))) (re.++ (re.* (re.* (str.to.re "JJ"))) (re.++ (re.union (re.* (str.to.re "HH")) (re.+ (str.to.re "I"))) (re.++ (re.* (re.union (str.to.re "F") (str.to.re "G"))) (re.++ (re.+ (re.union (str.to.re "D") (str.to.re "EE"))) (re.++ (re.* (re.union (str.to.re "BB") (str.to.re "CCC"))) (re.++ (re.union (re.+ (str.to.re "yy")) (re.union (str.to.re "z") (str.to.re "AA"))) (re.++ (re.+ (re.+ (str.to.re "xxx"))) (re.++ (re.* (re.union (str.to.re "v") (str.to.re "ww"))) (re.++ (re.union (re.+ (str.to.re "ttt")) (re.* (str.to.re "uuu"))) (re.++ (re.+ (re.* (str.to.re "s"))) (re.++ (re.+ (re.+ (str.to.re "rr"))) (re.++ (re.+ (re.union (str.to.re "p") (str.to.re "q"))) (re.++ (re.union (re.+ (str.to.re "mm")) (re.union (str.to.re "nn") (str.to.re "o"))) (re.++ (re.* (re.+ (str.to.re "ll"))) (re.++ (re.union (re.* (str.to.re "ii")) (re.union (str.to.re "jjj") (str.to.re "k"))) (re.++ (re.union (re.+ (str.to.re "ff")) (re.union (str.to.re "g") (str.to.re "hhh"))) (re.++ (re.+ (re.* (str.to.re "ee"))) (re.++ (re.+ (re.* (str.to.re "ddd"))) (re.++ (re.union (re.* (str.to.re "aaa")) (re.union (str.to.re "bbb") (str.to.re "ccc"))) (re.++ (re.* (re.union (str.to.re "88") (str.to.re "99"))) (re.++ (re.union (re.* (str.to.re "666")) (re.* (str.to.re "77"))) (re.++ (re.union (re.* (str.to.re "44")) (re.* (str.to.re "55"))) (re.++ (re.* (re.+ (str.to.re "3"))) (re.union (re.* (str.to.re "000")) (re.union (str.to.re "111") (str.to.re "22"))))))))))))))))))))))))))))))
(assert (not (str.in.re var0 (re.++ (re.+ (re.union (str.to.re "FFF") (str.to.re "G"))) (re.++ (re.* (re.union (str.to.re "DDD") (str.to.re "E"))) (re.++ (re.* (re.+ (str.to.re "C"))) (re.++ (re.+ (re.+ (str.to.re "B"))) (re.++ (re.union (re.+ (str.to.re "yyy")) (re.union (str.to.re "z") (str.to.re "A"))) (re.++ (re.union (re.+ (str.to.re "ww")) (re.+ (str.to.re "xxx"))) (re.++ (re.union (re.+ (str.to.re "uuu")) (re.* (str.to.re "vvv"))) (re.++ (re.* (re.+ (str.to.re "tt"))) (re.++ (re.* (re.* (str.to.re "ss"))) (re.++ (re.+ (re.union (str.to.re "qq") (str.to.re "r"))) (re.++ (re.union (re.union (str.to.re "nn") (str.to.re "ooo")) (re.+ (str.to.re "pp"))) (re.++ (re.+ (re.* (str.to.re "mm"))) (re.++ (re.union (re.+ (str.to.re "kkk")) (re.* (str.to.re "lll"))) (re.++ (re.union (re.union (str.to.re "ggg") (str.to.re "h")) (re.union (str.to.re "iii") (str.to.re "jj"))) (re.++ (re.* (re.union (str.to.re "e") (str.to.re "ff"))) (re.++ (re.* (re.union (str.to.re "cc") (str.to.re "dd"))) (re.++ (re.+ (re.* (str.to.re "bbb"))) (re.++ (re.* (re.* (str.to.re "aaa"))) (re.++ (re.* (re.* (str.to.re "999"))) (re.++ (re.+ (re.+ (str.to.re "88"))) (re.++ (re.* (re.+ (str.to.re "7"))) (re.++ (re.* (re.* (str.to.re "666"))) (re.++ (re.* (re.* (str.to.re "55"))) (re.++ (re.* (re.union (str.to.re "333") (str.to.re "44"))) (re.++ (re.union (re.+ (str.to.re "11")) (re.* (str.to.re "222"))) (re.+ (re.* (str.to.re "000")))))))))))))))))))))))))))))))
(check-sat)